
Solver Output:
Optimize a model with 11 rows, 26 columns and 70 nonzeros
Coefficient statistics:
  Matrix range    [1e+00, 5e+03]
  Objective range [1e+00, 1e+00]
  Bounds range    [0e+00, 0e+00]
  RHS range       [1e+01, 2e+01]
Presolve removed 11 rows and 26 columns
Presolve time: 0.00s
Presolve: All rows and columns removed
Iteration    Objective       Primal Inf.    Dual Inf.      Time
       0    0.0000000e+00   0.000000e+00   0.000000e+00      0s

Solved in 0 iterations and 0.00 seconds
Optimal objective  0.000000000e+00

Facility Program Output:

TotalShortage = 67
TotalShippingCost= 0


Solver Output:
Optimize a model with 11 rows, 26 columns and 70 nonzeros
Coefficient statistics:
  Matrix range    [1e+00, 5e+03]
  Objective range [1e+00, 1e+03]
  Bounds range    [0e+00, 0e+00]
  RHS range       [1e+01, 2e+01]
Iteration    Objective       Primal Inf.    Dual Inf.      Time
       0   -1.2000000e+29   3.000000e+30   1.200000e-01      0s
       1    8.0406360e+04   0.000000e+00   0.000000e+00      0s

Solved in 1 iterations and 0.00 seconds
Optimal objective  8.040636000e+04

Facility Program Output:

TotalShortage = 53
TotalShippingCost= 16800


Solver Output:
Optimize a model with 11 rows, 26 columns and 70 nonzeros
Coefficient statistics:
  Matrix range    [1e+00, 5e+03]
  Objective range [1e+00, 2e+03]
  Bounds range    [0e+00, 0e+00]
  RHS range       [1e+01, 2e+01]
Iteration    Objective       Primal Inf.    Dual Inf.      Time
       0   -2.0000000e+29   3.000000e+30   2.000000e-01      0s
       1    1.2280760e+05   0.000000e+00   0.000000e+00      0s

Solved in 1 iterations and 0.00 seconds
Optimal objective  1.228076000e+05

Facility Program Output:

TotalShortage = 38
TotalShippingCost= 46800


Solver Output:
Optimize a model with 11 rows, 26 columns and 70 nonzeros
Coefficient statistics:
  Matrix range    [1e+00, 5e+03]
  Objective range [1e+00, 2e+03]
  Bounds range    [0e+00, 0e+00]
  RHS range       [1e+01, 2e+01]
Iteration    Objective       Primal Inf.    Dual Inf.      Time
       0   -2.2000000e+29   3.000000e+30   2.200000e-01      0s
       2    1.3040704e+05   0.000000e+00   0.000000e+00      0s

Solved in 2 iterations and 0.01 seconds
Optimal objective  1.304070400e+05

Facility Program Output:

TotalShortage = 32
TotalShippingCost= 60000


Solver Output:
Optimize a model with 11 rows, 26 columns and 70 nonzeros
Coefficient statistics:
  Matrix range    [1e+00, 5e+03]
  Objective range [1e+00, 3e+03]
  Bounds range    [0e+00, 0e+00]
  RHS range       [1e+01, 2e+01]
Iteration    Objective       Primal Inf.    Dual Inf.      Time
       0   -5.2000000e+29   6.000000e+30   5.200000e-01      0s
       2    1.4320650e+05   0.000000e+00   0.000000e+00      0s

Solved in 2 iterations and 0.00 seconds
Optimal objective  1.432065000e+05

Facility Program Output:

TotalShortage = 25
TotalShippingCost= 78200


Solver Output:
Optimize a model with 11 rows, 26 columns and 70 nonzeros
Coefficient statistics:
  Matrix range    [1e+00, 5e+03]
  Objective range [1e+00, 3e+03]
  Bounds range    [0e+00, 0e+00]
  RHS range       [1e+01, 2e+01]
Iteration    Objective       Primal Inf.    Dual Inf.      Time
       0   -3.0000000e+29   3.000000e+30   3.000000e-01      0s
       1    1.5320210e+05   0.000000e+00   0.000000e+00      0s

Solved in 1 iterations and 0.00 seconds
Optimal objective  1.532021000e+05

Facility Program Output:

TotalShortage = 7
TotalShippingCost= 132200


Solver Output:
Optimize a model with 11 rows, 26 columns and 70 nonzeros
Coefficient statistics:
  Matrix range    [1e+00, 5e+03]
  Objective range [1e+00, 3e+03]
  Bounds range    [0e+00, 0e+00]
  RHS range       [1e+01, 2e+01]
Iteration    Objective       Primal Inf.    Dual Inf.      Time
       0   -6.2000000e+29   7.000000e+30   6.200000e-01      0s
       2    1.5390000e+05   0.000000e+00   0.000000e+00      0s

Solved in 2 iterations and 0.01 seconds
Optimal objective  1.539000000e+05

Facility Program Output:

TotalShortage = 0
TotalShippingCost= 153900

ship.0.0 = 0
ship.0.1 = 0
ship.0.2 = 14
ship.0.3 = 6
ship.1.0 = 14
ship.1.1 = 0
ship.1.2 = 0
ship.1.3 = 8
ship.2.0 = 0
ship.2.1 = 0
ship.2.2 = 0
ship.2.3 = 6
ship.3.0 = 1
ship.3.1 = 18
ship.3.2 = 0
ship.3.3 = 0
ship.4.0 = 0
ship.4.1 = 0
ship.4.2 = 0
ship.4.3 = 0
shortage.0 = 0
shortage.1 = 0
shortage.2 = 0
shortage.3 = 0
TotalShortage = 0
TotalShippingCost = 153900
Press any key to continue . . .